c "338928.clq"
p edge 80 304
e 1 5
e 1 6
e 1 7
e 1 8
e 1 9
e 1 10
e 1 11
e 1 13
e 1 15
e 1 20
e 1 28
e 1 30
e 1 31
e 1 32
e 1 36
e 1 38
e 1 55
e 1 73
e 1 77
e 1 78
e 2 5
e 2 10
e 2 21
e 2 28
e 2 51
e 2 58
e 3 5
e 3 6
e 3 39
e 3 46
e 3 53
e 4 5
e 4 6
e 4 7
e 4 8
e 4 10
e 4 13
e 4 15
e 4 16
e 4 17
e 4 18
e 4 24
e 4 32
e 4 34
e 4 37
e 4 42
e 4 43
e 4 58
e 4 61
e 4 63
e 4 66
e 5 6
e 5 7
e 5 11
e 5 12
e 5 14
e 5 17
e 5 19
e 5 20
e 5 24
e 5 30
e 5 31
e 5 35
e 5 50
e 5 52
e 6 7
e 6 8
e 6 9
e 6 11
e 6 14
e 6 16
e 6 17
e 6 18
e 6 19
e 6 24
e 6 37
e 6 39
e 6 44
e 6 46
e 6 50
e 6 52
e 6 56
e 6 59
e 6 60
e 6 63
e 6 64
e 7 8
e 7 9
e 7 10
e 7 12
e 7 13
e 7 16
e 7 18
e 7 22
e 7 23
e 7 25
e 7 27
e 7 29
e 7 33
e 7 34
e 7 36
e 7 38
e 7 40
e 7 42
e 7 43
e 7 45
e 7 48
e 7 52
e 7 63
e 7 64
e 7 72
e 7 74
e 8 9
e 8 14
e 8 15
e 8 17
e 8 19
e 8 21
e 8 26
e 8 27
e 8 29
e 8 32
e 8 34
e 8 35
e 8 37
e 8 39
e 8 40
e 8 41
e 8 42
e 8 45
e 8 47
e 8 50
e 8 53
e 8 54
e 8 55
e 8 61
e 8 62
e 8 76
e 9 11
e 9 12
e 9 14
e 9 25
e 9 26
e 9 28
e 9 29
e 9 47
e 9 62
e 10 18
e 10 21
e 10 22
e 10 36
e 10 39
e 10 48
e 10 77
e 11 12
e 11 13
e 11 20
e 11 46
e 11 56
e 11 71
e 12 30
e 12 33
e 12 54
e 12 80
e 13 15
e 13 22
e 13 58
e 13 67
e 13 77
e 13 79
e 14 16
e 14 24
e 14 33
e 14 54
e 14 56
e 14 73
e 15 20
e 15 22
e 15 25
e 15 31
e 15 68
e 15 74
e 16 19
e 16 21
e 16 26
e 16 27
e 16 31
e 16 34
e 16 35
e 16 45
e 16 49
e 16 69
e 16 80
e 17 23
e 17 25
e 17 44
e 17 68
e 17 75
e 17 79
e 18 23
e 18 32
e 18 35
e 18 61
e 18 67
e 18 77
e 18 79
e 18 80
e 19 51
e 20 26
e 20 28
e 20 38
e 20 57
e 20 59
e 20 66
e 20 70
e 21 23
e 21 27
e 21 58
e 22 48
e 22 72
e 22 73
e 23 51
e 23 66
e 24 29
e 25 30
e 25 55
e 25 61
e 26 36
e 26 44
e 26 48
e 26 57
e 26 65
e 26 71
e 28 41
e 28 44
e 28 47
e 29 38
e 29 49
e 29 65
e 30 54
e 30 69
e 30 72
e 31 33
e 31 40
e 31 53
e 32 49
e 32 50
e 32 74
e 33 40
e 33 59
e 34 37
e 34 43
e 34 59
e 35 45
e 35 49
e 35 57
e 35 71
e 36 41
e 36 46
e 36 55
e 36 60
e 38 47
e 38 76
e 39 41
e 39 78
e 40 42
e 40 68
e 41 43
e 42 64
e 42 72
e 42 75
e 44 52
e 44 65
e 44 76
e 45 53
e 46 56
e 46 64
e 46 70
e 47 62
e 47 67
e 47 68
e 48 51
e 48 63
e 48 67
e 51 71
e 53 57
e 53 60
e 53 70
e 53 78
e 55 65
e 57 60
e 57 76
e 59 79
e 59 80
e 60 62
e 60 66
e 60 75
e 63 69
e 63 73
e 64 74
e 64 75
e 66 69
e 66 70
e 77 78
